n_res = 5;
n_events = 52;
n_prec = 95;
source = 1;
sink = 52;
min_lvl = [-7, -3, 2, -4, -14];
max_lvl = [2, 4, 11, 4, -3];
rr = [| 0, -1, 0, 2, 2, -2, -1, -2, -1, 0, -2, -2, 0, -1, -1, -1, 0, 0, 1, 1, 1, -1, 1, 0, 0, -2, 0, 0, -1, 0, -2, 0, -2, 1, 0, 0, 0, 0, 2, 0, -1, 0, -2, 0, 0, 0, 1, 2, 2, 2, 1, 0
      | 0, -1, 0, 1, -1, -2, -1, 0, 0, 1, -2, 2, 1, -1, 0, -1, 0, 0, 2, 0, -2, 2, 2, -1, 0, -2, 0, 1, 2, 0, 1, 1, -2, -1, 0, 0, 0, 0, 1, 0, 0, 0, 0, 1, -1, 2, -1, 2, 0, 0, -1, 0
      | 0, 0, -1, 2, -1, 0, -1, 1, 2, 2, 0, -1, 0, 1, 0, 2, 0, 0, 1, 0, 0, 0, -1, 1, 2, 1, 1, 1, 0, 2, -2, 0, 0, 2, 0, 0, 0, -2, 0, 0, 0, 0, 2, 2, -2, 0, -1, 0, -2, 0, -1, 0
      | 0, 0, 1, 0, -1, 2, 1, 1, 0, -2, 1, 0, -2, 0, 0, 2, 0, 0, 0, -2, 0, 2, -1, 0, 1, 2, 2, -2, -1, -2, 0, -1, 0, 0, 0, 2, 0, 0, -1, -1, 1, 0, 2, 1, -1, 2, 1, -1, -2, 0, 0, 0
      | 0, -1, 0, 0, 0, 0, -2, 2, -2, 1, 0, -1, 0, 2, 0, -1, 0, -2, 0, 0, 0, 2, 1, -1, 1, 0, 0, 1, 0, 0, -2, -2, 0, 0, -2, 0, 1, 2, -2, -1, 1, -2, -2, 0, -2, 0, -2, -2, 0, 2, 1, 0 |];
prec = [| 1, 0, 6
        | 1, 0, 5
        | 1, 0, 7
        | 1, 0, 2
        | 1, 0, 3
        | 1, 0, 4
        | 2, 3, 12
        | 3, 8, 16
        | 3, -2, 42
        | 3, 1, 21
        | 4, 1, 29
        | 5, 0, 12
        | 5, 5, 32
        | 6, 11, 44
        | 7, 3, 33
        | 8, 19, 46
        | 8, -6, 26
        | 8, 3, 17
        | 9, 19, 14
        | 10, 8, 46
        | 10, 0, 20
        | 10, -2, 8
        | 11, 4, 41
        | 12, 11, 9
        | 13, 10, 51
        | 13, 11, 30
        | 14, 3, 47
        | 15, 3, 23
        | 16, 10, 34
        | 17, 7, 46
        | 18, 2, 12
        | 18, -3, 38
        | 18, 4, 10
        | 19, 3, 13
        | 20, 23, 8
        | 21, 0, 40
        | 22, -1, 44
        | 22, 2, 38
        | 23, 3, 35
        | 24, 9, 46
        | 24, 0, 14
        | 24, 4, 12
        | 24, 6, 27
        | 24, 11, 31
        | 25, -6, 39
        | 25, 1, 19
        | 25, 12, 13
        | 26, 3, 46
        | 26, 12, 17
        | 26, -23, 20
        | 27, 0, 22
        | 27, 8, 38
        | 28, 1, 11
        | 28, 6, 37
        | 28, 2, 45
        | 29, -1, 25
        | 30, 1, 41
        | 30, -1, 28
        | 31, 10, 20
        | 31, 10, 27
        | 31, 15, 44
        | 32, 18, 15
        | 32, 0, 31
        | 32, 23, 27
        | 33, 3, 48
        | 34, 4, 42
        | 35, 10, 24
        | 36, 15, 16
        | 37, 5, 39
        | 37, 7, 43
        | 37, 7, 45
        | 37, -10, 30
        | 38, 2, 18
        | 38, 4, 17
        | 38, 0, 12
        | 39, 2, 11
        | 40, 10, 42
        | 40, 13, 36
        | 41, -6, 43
        | 41, 0, 50
        | 42, 7, 49
        | 43, 2, 45
        | 43, 14, 50
        | 44, -68, 32
        | 44, 8, 52
        | 45, 8, 52
        | 46, 3, 52
        | 47, 5, 52
        | 47, -6, 14
        | 48, 3, 52
        | 49, 5, 52
        | 49, -61, 21
        | 50, -16, 43
        | 50, 9, 52
        | 51, 9, 52 |];
